DATASET = "thpack6";
INSTANCE = "047";

WIDTH = 233;
HEIGHT = 220;
LENGTH = 587;

NO_OF_SHAPES = 15;
size = [|
  118,54,42 |
  112,95,20 |
  118,38,37 |
  76,38,38 |
  100,56,34 |
  100,73,50 |
  75,58,36 |
  76,51,41 |
  82,75,39 |
  84,76,44 |
  80,68,50 |
  61,46,28 |
  80,75,51 |
  92,62,49 |
  72,48,21 |
|];

verticality = [|
  0,1,1 |
  0,0,1 |
  0,1,1 |
  0,1,1 |
  0,1,1 |
  0,1,1 |
  0,1,1 |
  1,1,1 |
  0,1,1 |
  1,1,1 |
  1,1,1 |
  0,1,1 |
  1,1,1 |
  1,1,1 |
  0,0,1 |
|];

box_count = [
  11,
  8,
  9,
  12,
  14,
  8,
  11,
  9,
  10,
  3,
  14,
  8,
  11,
  7,
  12,
];
